files/upTests/__reps/ExplicitVarSizeWithMarker/ofTuplesSet/0002.eprime
language ESSENCE' 1.0

find s_SetExplicitVarSize_tuple1: matrix indexed by [int(1..3)] of bool
find s_SetExplicitVarSize_tuple2_tuple1:
        matrix indexed by [int(1..3)] of int(1..4)
find s_SetExplicitVarSize_tuple2_tuple2_SetExplicitVarSizeWithDefault:
        matrix indexed by [int(1..3), int(1..3)] of int(1..4)
such that
    (sum v__0 : int(1..3) . s_SetExplicitVarSize_tuple1[v__0]) >= 1,
    exists v__0 : int(1..3)
        . s_SetExplicitVarSize_tuple1[v__0]
          /\
          (s_SetExplicitVarSize_tuple2_tuple1[v__0] = 1
           /\
           ((forAll v__1 : int(1..3)
                 . s_SetExplicitVarSize_tuple2_tuple2_SetExplicitVarSizeWithDefault[v__0, v__1]
                   !=
                   4
                   ->
                   2
                   =
                   s_SetExplicitVarSize_tuple2_tuple2_SetExplicitVarSizeWithDefault[v__0, v__1])
            /\
            (exists v__1 : int(1..3)
                 . s_SetExplicitVarSize_tuple2_tuple2_SetExplicitVarSizeWithDefault[v__0, v__1]
                   !=
                   4
                   /\
                   s_SetExplicitVarSize_tuple2_tuple2_SetExplicitVarSizeWithDefault[v__0, v__1]
                   =
                   2))),
    exists v__0 : int(1..3)
        . s_SetExplicitVarSize_tuple1[v__0]
          /\
          (s_SetExplicitVarSize_tuple2_tuple1[v__0] = 2
           /\
           ((forAll v__1 : int(1..3)
                 . s_SetExplicitVarSize_tuple2_tuple2_SetExplicitVarSizeWithDefault[v__0, v__1]
                   !=
                   4
                   ->
                   3
                   =
                   s_SetExplicitVarSize_tuple2_tuple2_SetExplicitVarSizeWithDefault[v__0, v__1])
            /\
            (exists v__1 : int(1..3)
                 . s_SetExplicitVarSize_tuple2_tuple2_SetExplicitVarSizeWithDefault[v__0, v__1]
                   !=
                   4
                   /\
                   s_SetExplicitVarSize_tuple2_tuple2_SetExplicitVarSizeWithDefault[v__0, v__1]
                   =
                   3))),
    exists v__0 : int(1..3)
        . s_SetExplicitVarSize_tuple1[v__0]
          /\
          (s_SetExplicitVarSize_tuple2_tuple1[v__0] = 4
           /\
           ((forAll v__1 : int(1..3)
                 . s_SetExplicitVarSize_tuple2_tuple2_SetExplicitVarSizeWithDefault[v__0, v__1]
                   !=
                   4
                   ->
                   1
                   =
                   s_SetExplicitVarSize_tuple2_tuple2_SetExplicitVarSizeWithDefault[v__0, v__1])
            /\
            (exists v__1 : int(1..3)
                 . s_SetExplicitVarSize_tuple2_tuple2_SetExplicitVarSizeWithDefault[v__0, v__1]
                   !=
                   4
                   /\
                   s_SetExplicitVarSize_tuple2_tuple2_SetExplicitVarSizeWithDefault[v__0, v__1]
                   =
                   1))),
    forAll v__0 : int(1..2)
        . s_SetExplicitVarSize_tuple1[v__0] /\ s_SetExplicitVarSize_tuple1[v__0 + 1]
          ->
          s_SetExplicitVarSize_tuple2_tuple1[v__0]
          <
          s_SetExplicitVarSize_tuple2_tuple1[v__0 + 1]
          \/
          s_SetExplicitVarSize_tuple2_tuple1[v__0]
          =
          s_SetExplicitVarSize_tuple2_tuple1[v__0 + 1]
          /\
          s_SetExplicitVarSize_tuple2_tuple2_SetExplicitVarSizeWithDefault[v__0, ..]
          <lex
          s_SetExplicitVarSize_tuple2_tuple2_SetExplicitVarSizeWithDefault[v__0 + 1, ..],
    forAll v__0 : int(1..2)
        . s_SetExplicitVarSize_tuple1[v__0] >= s_SetExplicitVarSize_tuple1[v__0 + 1],
    forAll v__0 : int(1..3)
        . s_SetExplicitVarSize_tuple1[v__0]
          ->
          2 = s_SetExplicitVarSize_tuple2_tuple1[v__0]
          /\
          ((exists v__1 : int(1..3)
                . s_SetExplicitVarSize_tuple2_tuple2_SetExplicitVarSizeWithDefault[v__0, v__1]
                  !=
                  4
                  /\
                  s_SetExplicitVarSize_tuple2_tuple2_SetExplicitVarSizeWithDefault[v__0, v__1]
                  =
                  3)
           /\
           (forAll v__1 : int(1..3)
                . s_SetExplicitVarSize_tuple2_tuple2_SetExplicitVarSizeWithDefault[v__0, v__1]
                  !=
                  4
                  ->
                  3
                  =
                  s_SetExplicitVarSize_tuple2_tuple2_SetExplicitVarSizeWithDefault[v__0, v__1]))
          \/
          1 = s_SetExplicitVarSize_tuple2_tuple1[v__0]
          /\
          ((exists v__1 : int(1..3)
                . s_SetExplicitVarSize_tuple2_tuple2_SetExplicitVarSizeWithDefault[v__0, v__1]
                  !=
                  4
                  /\
                  s_SetExplicitVarSize_tuple2_tuple2_SetExplicitVarSizeWithDefault[v__0, v__1]
                  =
                  2)
           /\
           (forAll v__1 : int(1..3)
                . s_SetExplicitVarSize_tuple2_tuple2_SetExplicitVarSizeWithDefault[v__0, v__1]
                  !=
                  4
                  ->
                  2
                  =
                  s_SetExplicitVarSize_tuple2_tuple2_SetExplicitVarSizeWithDefault[v__0, v__1]))
          \/
          4 = s_SetExplicitVarSize_tuple2_tuple1[v__0]
          /\
          ((exists v__1 : int(1..3)
                . s_SetExplicitVarSize_tuple2_tuple2_SetExplicitVarSizeWithDefault[v__0, v__1]
                  !=
                  4
                  /\
                  s_SetExplicitVarSize_tuple2_tuple2_SetExplicitVarSizeWithDefault[v__0, v__1]
                  =
                  1)
           /\
           (forAll v__1 : int(1..3)
                . s_SetExplicitVarSize_tuple2_tuple2_SetExplicitVarSizeWithDefault[v__0, v__1]
                  !=
                  4
                  ->
                  1
                  =
                  s_SetExplicitVarSize_tuple2_tuple2_SetExplicitVarSizeWithDefault[v__0, v__1])),
    forAll v__0 : int(1..3)
        . (forAll v__1 : int(1..2)
               . s_SetExplicitVarSize_tuple2_tuple2_SetExplicitVarSizeWithDefault[v__0, v__1]
                 !=
                 4
                 /\
                 s_SetExplicitVarSize_tuple2_tuple2_SetExplicitVarSizeWithDefault[v__0, v__1 + 1]
                 !=
                 4
                 ->
                 s_SetExplicitVarSize_tuple2_tuple2_SetExplicitVarSizeWithDefault[v__0, v__1]
                 <
                 s_SetExplicitVarSize_tuple2_tuple2_SetExplicitVarSizeWithDefault[v__0,
                                                                                  v__1 + 1])
          /\
          (forAll v__1 : int(1..2)
               . s_SetExplicitVarSize_tuple2_tuple2_SetExplicitVarSizeWithDefault[v__0, v__1]
                 <=
                 s_SetExplicitVarSize_tuple2_tuple2_SetExplicitVarSizeWithDefault[v__0,
                                                                                  v__1 + 1])
