files/upTests/__reps/ExplicitVarSizeWithMarker/ofTuplesSet/0002.eprime.solution
language ESSENCE' 1.0
$ minion Nodes: 1
$ minion TotalTime: 0.00466
$ Savile Row TotalTime: 0.747
letting s_SetExplicitVarSize_tuple2_tuple2_SetExplicitVarSizeWithDefault be [[2, 4, 4;int(1..3)], 
[3, 4, 4;int(1..3)], 
[1, 4, 4;int(1..3)];int(1..3)]
letting s_SetExplicitVarSize_tuple1 be [true, true, true;int(1..3)]
letting s_SetExplicitVarSize_tuple2_tuple1 be [1, 2, 4;int(1..3)]
